zaligvinder/models/SRE/data106/5798.txt
(((@|(j-0|f-1)).f-2)*.j-3.f-4.(@|@.((b-5|c-6)|e-7)).j-8.j-9.e-10|@.(h-11.c-12.h-13.i-14.j-15)*.d-16.(c-17.d-18)*).((d-19.b-20.h-21|(j-22|c-23)).(@|(@|(f-24|i-25).g-26)).(c-27.(b-28|j-29)|@.(@|g-30.f-31)).((@|(@.((@|(e-32|c-33)))*)*)|b-34.(j-35|d-36)).h-37.b-38.(((d-39.j-40.j-41|@.(@|((e-42.d-43)*)*))|d-44.(@|a-45.b-46).c-47)|@.(c-48|e-49).d-50).((e-51|(g-52.e-53.b-54|((@|j-55.e-56).i-57)*)).(h-58.b-59.d-60.b-61)*)*.((@|c-62.a-63))*.a-64.(((@.(b-65.((f-66|@.(e-67|c-68))|f-69)|c-70).e-71.b-72.c-73|(h-74|(d-75|e-76)))|@.((d-77|(c-78|f-79)))*.b-80.(h-81|e-82).j-83)|j-84)|(i-85.i-86.e-87.b-88|(@|f-89.h-90).(i-91.(d-92|@.(e-93.d-94|e-95)).e-96|e-97.(@|(i-98|f-99)).b-100.a-101.((((@|@.(@|(@.(f-102|b-103))*)))*)*|e-104))).(b-105.((((@|(j-106|d-107)))*|(@.(f-108|f-109))*))*.((i-110.(@|@.(f-111|h-112)).a-113.(@|(@|(@|((g-114|d-115))*))))*|((@|((((h-116|b-117)|g-118.e-119))*.j-120)*).a-121.(@.(@.(f-122.c-123)*|c-124).f-125.h-126|i-127.h-128))*)|((i-129.(c-130.((j-131.g-132.i-133.(((((f-134|f-135).f-136)*)*)*.(i-137|d-138))*.d-139.h-140)*|j-141)|(@.(e-142.a-143|f-144).(i-145|@.(@|@.(f-146.a-147)*).a-148))*)|(@.((@|(a-149|e-150))|h-151).d-152.(@|(@|e-153.h-154)).(d-155|c-156).(((@|(b-157.h-158)*).(@|j-159.e-160))*.d-161.(h-162.(@|c-163.f-164)|g-165)|a-166.(e-167|i-168)).c-169.(c-170|j-171)|(@|f-172.f-173).b-174))|(f-175|(h-176|(a-177|a-178))).(@|(i-179|f-180))).b-181.(@.((@|(@|(h-182|d-183)))|a-184))*.f-185.(c-186.b-187|(@|@.(@.(f-188|g-189)|a-190)).c-191).((((i-192|d-193).c-194|b-195)|@.(h-196|g-197))|@.(((@|(i-198|d-199)))*)*)).(((g-200|@.(@|g-201.g-202))|(@|(e-203.j-204.h-205)*).a-206.g-207.d-208))*.f-209.g-210.h-211.b-212.f-213.(c-214.(@|(h-215|e-216))|(@|@.(c-217.(@|(e-218|g-219)))*)).(@|h-220.h-221)).((((((f-222.f-223.a-224|((g-225|j-226.h-227)|f-228))|((c-229|g-230))*.c-231).b-232.i-233.d-234.f-235.j-236.(@.(b-237|c-238.d-239.a-240.e-241.b-242).(((@|(@|i-243.e-244)))*|h-245))*)*|(d-246.(b-247|e-248).b-249.(f-250|(d-251|@.(@|(@|((g-252|h-253))*)).e-254))|a-255.e-256.h-257.(i-258.e-259)*.(@|(b-260.e-261|(@|(j-262.d-263)*))).h-264.b-265.(j-266|(e-267|h-268).f-269))).a-270.(i-271|f-272).g-273.i-274.(i-275|h-276).(c-277.d-278)*.g-279.a-280.j-281.(c-282|h-283.d-284.b-285).((i-286|d-287.(h-288|j-289).j-290.d-291.e-292).b-293.((b-294|((j-295|(@|e-296.e-297))|(@|d-298.h-299).j-300))|g-301).f-302|(j-303|e-304).g-305.b-306.f-307).(((@|@.(i-308.h-309.(h-310|(e-311.h-312)*).i-313|(a-314|g-315)).a-316.g-317.c-318.a-319.g-320.b-321.((c-322|(b-323|h-324)))*.d-325.((f-326|(@|(@|c-327.h-328)))|g-329).(d-330|f-331).(@|b-332.g-333.f-334).(@.(g-335|@.(@|i-336.g-337)).j-338.(((@|i-339.f-340))*)*.d-341.d-342)*.(@.((f-343|c-344)|g-345).g-346|a-347))|d-348.d-349.(((f-350.b-351)*|b-352)|h-353).c-354.((((h-355.d-356)*|@.(@.(@|@.(f-357|j-358))|d-359.f-360)))*|@.(a-361.j-362)*).d-363.((c-364|g-365).(@|j-366.((h-367|c-368))*)|(f-369.f-370|a-371)).h-372))*)*|((e-373.i-374.((f-375|(b-376.b-377.c-378)*).e-379|c-380).j-381.f-382.(@|(i-383.i-384.f-385.h-386|c-387.e-388)).(j-389.(@|@.(@|@.(f-390|a-391)))|((@|(b-392|d-393)))*).(@.(e-394|(@|(b-395|f-396))))*|((g-397.b-398.j-399|i-400.((@|g-401.(@|@.(@|(@|f-402.c-403))).(@|(f-404|a-405)).(@|a-406.h-407).(f-408.d-409)*))*.c-410.d-411).(((@.(c-412|g-413).j-414)*|j-415))*.d-416.(d-417.g-418|(@.(@|((a-419|e-420))*))*).((((@|(h-421|j-422).a-423)|a-424.((@|i-425.a-426))*.(@.(a-427|d-428)|(f-429.j-430.i-431.a-432)*))|(f-433|i-434.f-435.(@.(g-436|f-437))*).b-438.j-439.b-440.(j-441|a-442)).(i-443|e-444).(@|(i-445.b-446.a-447|f-448)))*.(@|d-449.(a-450.g-451)*).(@.(@|d-452.j-453).(((a-454|g-455)|h-456)|g-457).((((b-458|j-459))*)*.f-460.a-461|j-462))*.h-463)*.(j-464.f-465.(e-466.f-467.f-468.a-469|a-470).a-471.e-472|((g-473|h-474).(h-475|h-476)|(@.(@|((d-477|h-478))*).(((@|j-479.i-480)|f-481)|b-482)|i-483.e-484.h-485.i-486))).(a-487.a-488.g-489.(h-490.g-491.i-492|b-493).f-494|((@|c-495.a-496.f-497)|i-498).(@|b-499.(@|i-500.i-501)).f-502.(c-503.a-504|j-505).(f-506.c-507.c-508.f-509.(e-510|b-511.d-512))*)).((@.(@|(@|h-513.a-514)).g-515.g-516|a-517).(i-518.(d-519.g-520.(((@|(@|@.(e-521|c-522))))*)*.a-523|@.(c-524|a-525)).(j-526.a-527|((@|(h-528|i-529.h-530)))*)|(a-531|(e-532.b-533|(f-534|(a-535|f-536)))))|(@|(e-537.d-538)*.(@|(@|@.(a-539.i-540)*))).c-541.(@|(d-542|i-543)).g-544.i-545.e-546.(@|(e-547|b-548.a-549.g-550).(j-551.(@|@.(g-552|b-553))|c-554)).(@|(a-555|d-556)).d-557.(f-558|j-559).(d-560|((@|(@.(@|g-561.i-562))*)|d-563)).(@|@.(g-564|j-565)).(@.(e-566.a-567|a-568).((@|(h-569.h-570)*)|g-571)|d-572.j-573)))*)
((e-0.i-1.(((@|(g-2|g-3).(((((g-4|f-5))*)*)*|g-6))|h-7))*.((@.(@|(h-8|h-9)).((@|(@|(f-10.c-11)*))|(a-12|h-13)).((@.(j-14|e-15.f-16))*|(@|a-17.c-18)).((@|f-19.g-20)|(b-21|(j-22|a-23)))|j-24)|d-25).c-26.e-27.((@|(e-28|b-29.f-30)))*.f-31|d-32.(((((@.(g-33.i-34)*|b-35.c-36.d-37).e-38|c-39).(@|((@|(@.(b-40|f-41))*))*).d-42.g-43|e-44.e-45)|@.(c-46.(c-47|j-48).g-49)*.f-50.g-51.i-52.(@|(f-53.d-54)*).h-55)|c-56.(@.(@|(e-57|c-58)).(@.(i-59|a-60)|d-61.g-62.j-63))*).((@|(@.(e-64|b-65).e-66.c-67.d-68.(a-69.h-70)*.d-71)*)|((b-72|h-73)|j-74)).((c-75.c-76.d-77)*|((j-78|a-79)|(b-80.b-81|@.(b-82|f-83))).g-84)).((((@|(@|i-85.f-86.f-87))|((g-88|d-89)|@.(f-90.d-91.h-92)*)))*)*.(((((@|@.(b-93.a-94)*)|b-95)|((d-96.c-97)*.(e-98|(h-99.c-100)*))*).a-101.g-102|f-103.d-104.j-105.j-106.i-107.h-108.j-109)|(@|f-110.e-111).((@|(@|@.(@|(c-112|g-113)))))*.(h-114|i-115).d-116.c-117.g-118.(@|(g-119|g-120)).(@.(@|j-121.i-122))*.c-123.j-124.i-125.i-126).f-127.((d-128.i-129.(@.(@|(j-130|b-131)))*.d-132.(@|c-133.d-134).a-135)*.(b-136.a-137|@.(a-138|g-139))|i-140.j-141.g-142).d-143.((i-144|((@|i-145.b-146.a-147.j-148.f-149).i-150.(f-151|h-152.b-153))*)|a-154.(@|a-155.h-156).c-157.h-158.(e-159.f-160|f-161.d-162).g-163.(((@|i-164.h-165)|@.(@.(@|@.(d-166|g-167)))*.g-168))*.(f-169.(@|@.(@|i-170.c-171)))*.(@|(@|(@|(@.(b-172|e-173))*))).i-174.c-175.(@.(@|a-176.e-177))*).g-178.e-179.f-180.h-181.(f-182|e-183.f-184).((h-185.d-186.f-187.(b-188.c-189.d-190)*.a-191.i-192)*|(((a-193.e-194.f-195|e-196)|a-197))*).(@.(h-198|d-199).a-200.c-201|(@.(g-202|d-203))*).a-204.d-205.((@|g-206.j-207)|(g-208|a-209)).(@|@.(@.(@|@.((@.(h-210|a-211))*)*)|(c-212|b-213))).(@.(f-214|b-215).a-216)*.h-217.i-218.(a-219.g-220.b-221.g-222.f-223|(@|c-224.c-225)).(@.(i-226.a-227)*)*.b-228.((h-229.c-230)*)*.i-231.(@.(@|(@.(@|h-232.e-233).b-234|f-235)).f-236.e-237)*.((@.((f-238|h-239)|((i-240|g-241.a-242)|f-243).(a-244|i-245))|(@|(@.(@|(a-246|d-247)))*).((c-248|d-249))*.e-250.((((@.(@.(@.(@.(b-251|j-252))*)*)*.f-253.g-254.a-255.j-256.g-257.(@.((((d-258.b-259|b-260))*|i-261.d-262))*)*|e-263).(((@|j-264.j-265))*)*)*)*|e-266))|((@.(((d-267.c-268|((c-269.i-270)*|b-271)))*|f-272.c-273.(@|@.(@|i-274.a-275).g-276))|(c-277.h-278|c-279).d-280).(c-281.b-282|@.(@|e-283.c-284)))*).g-285.((i-286|e-287))*.f-288.(g-289.i-290)*|(((((b-291|b-292))*|(((@|a-293.h-294)|j-295)|e-296).j-297.f-298.d-299.j-300.b-301).(c-302|((c-303.g-304|g-305)|e-306.a-307.a-308)).(f-309|h-310).a-311.(b-312|b-313).((@|(@|d-314.g-315)))*.(c-316.h-317)*.((g-318.g-319.f-320.g-321)*.i-322|(c-323|(d-324.i-325|a-326)).((i-327.(@|d-328.g-329).c-330)*)*).i-331)*|b-332.d-333.i-334.a-335.a-336.a-337.j-338.g-339.i-340.i-341.f-342.((@|i-343.e-344.g-345.d-346)|g-347).(@|c-348.j-349).d-350.(b-351.(@|e-352.d-353).b-354.(@|d-355.c-356))*.((c-357.(g-358|d-359)|(i-360.h-361.(j-362|d-363).g-364.(i-365.j-366)*|@.(@.(@|(i-367.a-368)*))*)).(i-369.d-370.j-371|(@|((@|j-372.(j-373|b-374))|b-375))))*).((((@|@.(i-376|e-377)).(c-378.((f-379|j-380))*.f-381|(@|(@.(@|(@|j-382.c-383)))*.((f-384.j-385.f-386.j-387.h-388.e-389.j-390)*|h-391)))|d-392).(@|@.(h-393|i-394)).i-395.g-396.d-397.(@|(b-398|(f-399|g-400).d-401))|(i-402|c-403.j-404)))*.((e-405|i-406).(c-407.d-408|j-409).a-410.(@|(e-411|j-412)).e-413.((@|(@|@.(i-414|c-415))))*.f-416.g-417.f-418.((@.(@|b-419.g-420).g-421.e-422|i-423).(a-424|b-425)|g-426).(d-427.(@|(b-428.(j-429|@.(@|((b-430|h-431))*).a-432).((@|(@|(h-433.((@|c-434.c-435))*|c-436))))*|g-437)))*.(d-438|a-439.c-440).j-441.(i-442|g-443)|(@|(f-444.c-445)*).f-446.i-447)).((f-448.(h-449.i-450)*)*.i-451.(((@|((@|i-452.j-453).f-454|a-455).g-456.h-457.g-458))*.(((j-459|i-460)|(@|i-461.g-462)))*|i-463))*.(@|e-464.e-465.(i-466.d-467)*).c-468.f-469.c-470.(h-471|f-472).(a-473|(((a-474.(e-475.c-476.a-477)*.c-478)*|g-479.b-480))*).c-481.f-482.h-483.i-484.f-485.(((@.(a-486.a-487.(e-488|a-489))*.(((e-490.e-491)*|c-492.d-493).(@|g-494.f-495)|(@|@.(((@|c-496.a-497)|b-498)|a-499))))*|i-500.i-501.(h-502.(@|(@|@.(((@|(@|(@|(@|(c-503|h-504))))))*|c-505).b-506)))*).(@|((@|(d-507|b-508)))*)|((((((@|h-509.a-510.c-511.(@|f-512.d-513))|d-514).(i-515.i-516|((j-517|c-518)|(b-519|c-520).a-521))|@.(j-522.h-523)*.d-524.a-525.(@.(d-526|a-527).j-528.e-529.f-530.e-531.(@|(@|(@|((f-532.a-533)*)*))))*.((@|(@|d-534.(j-535|j-536)))|b-537))|b-538))*)*.(j-539.d-540|(((@.((b-541.(f-542|a-543.h-544))*)*.i-545.g-546.(@|a-547.b-548).(@|i-549.c-550).f-551.(@.(@|(@|b-552.j-553))|h-554)|g-555)|d-556))*)).(i-557.(f-558.f-559.(a-560|h-561.h-562).b-563)*.(((b-564|b-565.b-566.f-567)|f-568))*.(j-569.c-570)*.h-571.f-572.((f-573|b-574)|e-575).(d-576.(j-577|d-578)|c-579.e-580).(@.(e-581|(@|((e-582.c-583.d-584)*)*)))*.(@|(a-585|c-586)).a-587.j-588.b-589.g-590.(g-591.(@|(c-592.j-593)*).d-594.h-595.e-596.f-597|((((b-598|(@|(j-599|f-600)))|i-601).a-602|(c-603|a-604.h-605)).j-606|@.(b-607|b-608))).(@|e-609.b-610.g-611).((@.(g-612.g-613)*|((@|(c-614|(e-615.((d-616.((@|(@|(@|e-617.a-618)))|i-619)|a-620.h-621))*|j-622))))*).h-623|(c-624.g-625.(@.(g-626|(@|@.(@|(d-627|e-628)))).(@|c-629.c-630)|b-631).(a-632|e-633)|i-634.f-635))|j-636).((@|(@|(j-637|a-638).((j-639.e-640|i-641.d-642))*))|((((a-643|b-644)|(f-645|h-646)))*.d-647|@.((a-648.j-649.f-650|c-651.(b-652|j-653.c-654))|f-655.e-656).i-657.f-658.c-659.(@|f-660.f-661).(g-662|(@.(b-663.g-664|j-665).a-666|f-667.a-668).(g-669.(@.(@|b-670.f-671.d-672)|(((a-673.j-674)*)*|@.((@|h-675.d-676.e-677))*)))*))).((((((g-678.(@|i-679.e-680).b-681.c-682.i-683.((j-684|g-685.a-686).h-687.(@|(@.(b-688|(@|(b-689.h-690)*))|e-691))|(@.(@.(d-692|@.(c-693.d-694)*).a-695)*.e-696)*).(h-697|h-698).d-699.c-700.(e-701|c-702).((((i-703|e-704.(h-705|h-706).h-707))*|a-708.(@|(d-709|e-710)).j-711.(h-712.a-713)*.h-714).e-715|(@.(e-716.f-717|h-718).d-719.e-720.h-721.g-722.a-723.d-724)*))*|(b-725.e-726.(g-727.f-728.b-729.c-730.c-731.c-732.(@|f-733.j-734))*.(e-735|e-736).f-737.a-738.c-739.((j-740|b-741))*.(e-742|a-743).((@|i-744.(g-745|a-746)))*|@.((@|(g-747|a-748))|h-749)))|(f-750.h-751.b-752.c-753.i-754.j-755)*)|@.(@.(@|(b-756|i-757)).c-758.d-759.(@|(g-760|j-761))|(@|f-762.c-763))))*.((@.(h-764|h-765).((@|(g-766|j-767.c-768.i-769)))*.((d-770|a-771)|((((c-772|f-773)|d-774.a-775)|a-776).(@|(i-777.((@.(f-778|d-779))*|b-780).a-781.b-782.(b-783|g-784).f-785)*).((@|@.(h-786|i-787.((j-788|e-789))*)))*.g-790.((d-791.h-792.j-793.i-794.(i-795|a-796))*.(@|@.(@|(h-797|b-798)).(a-799.(a-800|(@|(c-801|(e-802|a-803))))|@.(@|@.(c-804.g-805)*.(h-806|f-807)).(j-808|b-809)).(@.(@.(a-810|g-811))*|e-812))|b-813))*)|(@|@.(@|(@|(@|h-814.j-815).d-816))).b-817.((@|@.(d-818|c-819)))*.(i-820.(@|(@.(i-821|i-822))*)|e-823)).c-824.((j-825|f-826)|h-827).b-828.(@|@.(@.(@|@.(a-829|j-830)))*).i-831.b-832.h-833.j-834.((i-835.i-836.a-837.(@|(@|i-838.a-839)).(h-840.h-841)*.((@|(@|g-842.h-843))|d-844).(@|((@|g-845.f-846))*))*|(@|j-847.a-848.b-849.a-850.h-851.j-852)).(@.(j-853|d-854)|c-855).(d-856.g-857|a-858).(i-859.(a-860|c-861).j-862.((j-863|c-864).(@|@.(((@|b-865.b-866))*)*)|(d-867.b-868.i-869|b-870.(@|(@|(@|@.(@|@.(@|i-871.e-872))))))).(@|(@.(i-873|g-874.c-875.g-876.f-877.d-878).b-879.b-880)*).f-881.h-882)*.i-883.e-884.h-885.(@.(@|(@|(j-886|b-887))).f-888.g-889.(a-890|e-891.i-892.j-893).h-894.(@|(b-895|f-896)).f-897.c-898|b-899.c-900.a-901).(a-902.f-903|i-904).f-905.i-906.f-907.(((((b-908.h-909|j-910.c-911).b-912.f-913|e-914)|e-915).b-916)*|(@|(j-917|d-918).h-919).(@|i-920.d-921.a-922).c-923.b-924.b-925).((@|@.(g-926.(@|(j-927|h-928)))*)|(h-929.(((d-930|e-931).(@|(@|j-932.d-933)).d-934.i-935.(@|g-936.d-937).(d-938.c-939)*.h-940.h-941.g-942.g-943.(a-944|h-945.b-946).e-947.(j-948|h-949)|(i-950.f-951|a-952)))*|(a-953|(c-954.b-955)*))))*|d-956.(h-957.i-958.f-959|b-960.(j-961.a-962|h-963)).(b-964.e-965|(b-966.g-967.f-968)*.((d-969.b-970)*|f-971).(c-972.c-973.d-974.e-975.a-976.(f-977|a-978))*))
